c case300 in MATPOWER https://matpower.org
p edge 300 409
e 1 2
e 2 3
e 2 4
e 2 5
e 2 6
e 2 7
e 2 8
e 2 9
e 2 10
e 2 15
e 2 16
e 10 11
e 11 12
e 11 13
e 11 14
e 15 16
e 15 19
e 16 17
e 16 18
e 19 20
e 19 29
e 19 36
e 20 21
e 20 22
e 22 23
e 22 24
e 24 25
e 24 26
e 26 27
e 26 28
e 29 30
e 29 31
e 29 32
e 29 33
e 29 34
e 34 35
e 36 37
e 36 38
e 36 40
e 36 72
e 36 74
e 36 75
e 36 76
e 37 39
e 37 40
e 38 40
e 38 41
e 39 44
e 39 45
e 40 42
e 40 107
e 40 108
e 41 46
e 41 47
e 42 43
e 44 45
e 44 46
e 45 61
e 45 62
e 46 47
e 46 49
e 46 50
e 47 48
e 48 54
e 48 60
e 49 50
e 49 51
e 50 51
e 50 52
e 50 54
e 52 53
e 52 56
e 54 55
e 54 57
e 56 58
e 56 59
e 57 59
e 59 61
e 59 62
e 59 64
e 60 117
e 60 119
e 61 64
e 61 65
e 62 63
e 63 71
e 63 72
e 64 66
e 64 68
e 65 66
e 66 67
e 67 69
e 68 70
e 69 141
e 69 144
e 70 86
e 70 91
e 71 74
e 71 85
e 71 86
e 72 73
e 73 74
e 73 75
e 73 78
e 74 75
e 75 76
e 75 79
e 75 80
e 76 77
e 76 79
e 78 80
e 79 81
e 80 92
e 80 106
e 80 107
e 81 82
e 82 83
e 82 84
e 82 89
e 84 85
e 84 86
e 86 87
e 86 88
e 88 103
e 88 106
e 88 109
e 89 90
e 89 94
e 89 97
e 91 109
e 91 120
e 91 126
e 91 130
e 92 93
e 94 95
e 94 96
e 96 99
e 97 98
e 98 100
e 99 100
e 99 102
e 99 103
e 99 104
e 100 101
e 104 105
e 105 266
e 105 267
e 105 272
e 105 273
e 106 111
e 107 110
e 108 116
e 109 112
e 109 113
e 110 117
e 111 113
e 111 157
e 111 158
e 113 114
e 114 115
e 115 120
e 115 121
e 115 124
e 116 218
e 116 224
e 117 118
e 117 198
e 117 215
e 117 218
e 117 220
e 119 225
e 119 230
e 119 231
e 120 121
e 121 122
e 121 123
e 121 124
e 121 131
e 121 132
e 124 125
e 124 126
e 126 127
e 126 128
e 128 129
e 130 132
e 130 134
e 130 135
e 131 134
e 132 133
e 134 135
e 134 138
e 134 139
e 134 140
e 134 147
e 134 150
e 135 136
e 136 137
e 137 141
e 137 143
e 138 139
e 139 140
e 139 147
e 139 148
e 139 149
e 141 142
e 142 144
e 142 145
e 143 145
e 144 146
e 145 147
e 145 149
e 146 148
e 146 149
e 149 151
e 149 152
e 150 157
e 150 161
e 151 152
e 152 153
e 153 154
e 153 156
e 154 155
e 156 165
e 156 166
e 156 167
e 157 160
e 158 159
e 158 160
e 160 170
e 160 171
e 160 173
e 161 162
e 161 163
e 162 170
e 163 164
e 163 165
e 165 166
e 166 167
e 166 169
e 167 168
e 168 169
e 170 171
e 170 172
e 171 172
e 172 176
e 172 177
e 173 174
e 173 175
e 173 180
e 173 185
e 176 182
e 177 178
e 177 179
e 179 180
e 180 181
e 180 183
e 182 184
e 183 185
e 183 188
e 184 187
e 184 195
e 185 186
e 185 187
e 185 190
e 185 191
e 188 189
e 188 190
e 190 193
e 191 192
e 193 194
e 195 196
e 195 197
e 196 197
e 198 199
e 199 200
e 199 201
e 199 203
e 199 206
e 199 209
e 199 210
e 199 212
e 199 213
e 201 202
e 202 203
e 203 204
e 204 205
e 204 209
e 204 211
e 204 283
e 204 288
e 204 289
e 205 206
e 205 207
e 207 208
e 207 209
e 207 210
e 207 212
e 207 216
e 210 211
e 211 212
e 211 214
e 213 215
e 214 241
e 214 242
e 215 217
e 215 222
e 215 225
e 216 244
e 216 253
e 216 258
e 216 259
e 216 261
e 216 263
e 217 218
e 218 219
e 220 221
e 220 222
e 222 223
e 223 224
e 224 227
e 224 228
e 224 229
e 225 226
e 225 227
e 229 230
e 230 236
e 230 238
e 231 232
e 231 233
e 231 234
e 234 235
e 234 236
e 234 237
e 237 239
e 238 239
e 239 240
e 241 244
e 242 243
e 244 245
e 245 246
e 246 247
e 246 248
e 247 249
e 248 251
e 249 250
e 250 251
e 251 252
e 252 253
e 252 254
e 254 255
e 255 256
e 256 257
e 258 259
e 259 260
e 259 262
e 260 261
e 261 262
e 263 264
e 263 265
e 263 267
e 263 268
e 263 273
e 263 280
e 264 265
e 264 267
e 264 268
e 266 267
e 267 269
e 268 270
e 269 271
e 270 278
e 270 279
e 271 272
e 271 274
e 271 276
e 272 274
e 273 275
e 274 275
e 275 277
e 275 278
e 276 277
e 277 278
e 278 279
e 279 281
e 280 281
e 281 282
e 283 284
e 283 285
e 284 285
e 284 289
e 284 292
e 285 286
e 286 287
e 286 293
e 287 288
e 288 290
e 289 290
e 290 291
e 291 295
e 292 294
e 293 298
e 294 295
e 294 296
e 295 296
e 295 297
e 296 298
e 296 299
e 297 298
e 298 300
l 123
t 155 299
